branch-and-cut/resultados/I080/i080-043.sol
1295
7
58 5
1 11
11 58
2 58
3 58
58 6
11 4
